
c--------------------------------------------------------------
c	Ferhat Erata
c	CPSC 454/554
c	Tue Nov 26 2019	22:50:31
c--------------------------------------------------------------
c 15 20
c 1 -6 -14 1 -2 8 14 7 -10 5 2 1 14 
c 9 13 -1 -1 -4 14 -15 14 -12 -2 6 -6 
c -2 -6 -11 -8 -13 -2 9 10 
c 13 6 5 1 -3 4 -15 1 -9 3 6 -12 -13 -14 -8 
c -1 -9 -14 13 11 -10 -11 
c 9 5 -9 12 11 -11 
c 3 4 15 -15 -2 -11 -7 
c 13 7 2 -8 2 -2 14 
c 7 11 2 -14 -5 11 4 -10 -3 -2 14 -2 -10 -8 
c -11 11 -11 -2 1 7 -8 -2 -6 1 
c -4 5 11 8 
c 1 -4 -12 14 10 5 -11 4 4 -1 9 14 1 1 -8 
c 1 3 6 -10 2 11 9 1 9 -1 -2 -10 8 -9 
c 6 -2 -8 -2 7 -14 14 1 -3 2 7 -8 -7 9 
c -6 -2 -10 -3 2 -5 
c -14 1 4 -4 
c 13 
c -2 7 14 4 
c -6 -15 -9 
c 9 -5 9 6 4 -3 4 6 10 11 -11 7 -1 
s SATISFIABLE
c model: -1 -2 -3 -4 -5 -6 -7 -8 -9 -10 -11 -12 13 -14 -15 
c--------------------------------------------------------------
c statistics of ../../bench1/sat/15-20.cnf:
c [ mem_used: 395, conflicts: 0, max_lemmas: 2000 ]
c--------------------------------------------------------------
c	Normal termination.
